\ENCODING=ISO-8859-1
\Problem name: ilog.cplex

Minimize
 obj1: 97912 x1 + 106862 x2 + 109971 x3 + 100782 x4 + 98986 x5 + 102565 x6
       + 91754 x7 + 92401 x8 + 92094 x9 + 108151 x10 + 101615 x11 + 98193 x12
       + 91822 x13 + 92950 x14 + 96988 x15 + 102120 x16 + 109670 x17
       + 102519 x18 + 91831 x19 + 94934 x20 + 91392 x21 + 104166 x22
       + 94231 x23 + 104177 x24 + 97985 x25 + 107176 x26 + 99664 x27
       + 91869 x28 + 102467 x29 + 109870 x30 + 97130 x31 + 91281 x32
       + 103649 x33 + 109274 x34 + 94761 x35 + 90582 x36 + 92806 x37
       + 103390 x38 + 96536 x39 + 108222 x40 + 109507 x41 + 100937 x42
       + 102367 x43 + 102574 x44 + 108793 x45 + 108907 x46 + 100108 x47
       + 96676 x48 + 93494 x49 + 94417 x50 + 109904 x51 + 97817 x52
       + 102680 x53 + 94039 x54 + 108854 x55 + 91286 x56 + 90061 x57
       + 91199 x58 + 107079 x59 + 107759 x60 + 104607 x61 + 99888 x62
       + 103903 x63 + 96494 x64 + 102847 x65 + 97765 x66 + 91910 x67
       + 91035 x68 + 103479 x69 + 98580 x70 + 94787 x71 + 96689 x72
       + 109657 x73 + 99448 x74 + 91813 x75 + 103222 x76 + 104426 x77
       + 100055 x78 + 99696 x79 + 104581 x80 + 97694 x81 + 96947 x82
       + 92008 x83 + 90958 x84 + 100639 x85 + 95320 x86 + 91282 x87
       + 109260 x88 + 90958 x89 + 90745 x90 + 98757 x91 + 94507 x92 + 98134 x93
       + 92346 x94 + 100314 x95 + 94075 x96 + 104342 x97 + 103661 x98
       + 91448 x99 + 101721 x100 + 103661 x101 + 107738 x102 + 98921 x103
       + 108986 x104 + 109938 x105 + 98993 x106 + 102293 x107 + 107809 x108
       + 91936 x109 + 105907 x110 + 94581 x111 + 100121 x112 + 103345 x113
       + 95893 x114 + 108075 x115 + 107667 x116 + 104779 x117 + 106446 x118
       + 108697 x119 + 108487 x120 + 95219 x121 + 99744 x122 + 105415 x123
       + 98580 x124 + 94809 x125 + 96883 x126 + 93751 x127 + 104782 x128
       + 109229 x129 + 90796 x130 + 101236 x131 + 106668 x132 + 92425 x133
       + 98894 x134 + 90906 x135 + 107938 x136 + 90027 x137 + 108641 x138
       + 100901 x139 + 105812 x140 + 95206 x141 + 96270 x142 + 94616 x143
       + 109523 x144 + 96610 x145 + 93269 x146 + 107196 x147 + 94460 x148
       + 92451 x149 + 91834 x150 + 101110 x151 + 109733 x152 + 98568 x153
       + 96292 x154 + 92649 x155 + 100553 x156 + 107711 x157 + 103921 x158
       + 105873 x159 + 101045 x160 + 102288 x161 + 95655 x162 + 90894 x163
       + 97984 x164 + 103483 x165 + 94810 x166 + 109302 x167 + 101442 x168
       + 95890 x169 + 90307 x170 + 101169 x171 + 104420 x172 + 98751 x173
       + 99767 x174 + 105219 x175 + 90307 x176 + 102349 x177 + 107395 x178
       + 106640 x179 + 94347 x180 + 103309 x181 + 95251 x182 + 99567 x183
       + 92256 x184 + 106135 x185 + 101795 x186 + 102123 x187 + 98551 x188
       + 107615 x189 + 96648 x190 + 94965 x191 + 92838 x192 + 106973 x193
       + 101498 x194 + 101614 x195 + 106296 x196 + 103753 x197 + 101446 x198
       + 107486 x199 + 107116 x200 + 104495 x201 + 90701 x202 + 93016 x203
       + 105427 x204 + 105452 x205 + 97800 x206 + 99874 x207 + 98397 x208
       + 98921 x209 + 99708 x210 + 109281 x211 + 108571 x212 + 93797 x213
       + 97958 x214 + 97246 x215 + 107584 x216 + 94546 x217 + 109386 x218
       + 97954 x219 + 102113 x220 + 107013 x221 + 99001 x222 + 93612 x223
       + 109239 x224 + 94408 x225 + 93221 x226 + 96711 x227 + 104364 x228
       + 92213 x229 + 97947 x230 + 98970 x231 + 106406 x232 + 106954 x233
       + 107832 x234 + 90161 x235 + 92201 x236 + 90446 x237 + 90666 x238
       + 99561 x239 + 104873 x240 + 99391 x241 + 91356 x242 + 109051 x243
       + 108854 x244 + 92610 x245 + 90592 x246 + 94411 x247 + 109257 x248
       + 94806 x249 + 98793 x250 + 95911 x251 + 91848 x252 + 95050 x253
       + 105244 x254 + 102367 x255 + 103811 x256 + 93709 x257 + 93708 x258
       + 102031 x259 + 90254 x260 + 101949 x261 + 108312 x262 + 94550 x263
       + 104393 x264 + 100347 x265 + 105636 x266 + 94854 x267 + 101158 x268
       + 106501 x269 + 103392 x270 + 93687 x271 + 101024 x272 + 105030 x273
       + 109129 x274 + 93236 x275 + 106719 x276 + 102427 x277 + 95939 x278
       + 105708 x279 + 91841 x280 + 103902 x281 + 106441 x282 + 107740 x283
       + 97499 x284 + 109743 x285 + 91147 x286 + 104161 x287 + 90763 x288
       + 94622 x289 + 102804 x290 + 90896 x291 + 96988 x292 + 104895 x293
       + 94452 x294 + 98697 x295 + 97032 x296 + 106137 x297 + 105618 x298
       + 106908 x299 + 99919 x300 + 101683 x301 + 105773 x302 + 103895 x303
       + 95244 x304 + 101929 x305 + 108735 x306 + 105379 x307 + 95321 x308
       + 91056 x309 + 91821 x310 + 109267 x311 + 107570 x312 + 103174 x313
       + 94050 x314 + 98004 x315 + 104896 x316 + 92388 x317 + 104847 x318
       + 104901 x319 + 102472 x320 + 93438 x321 + 92615 x322 + 99391 x323
       + 92346 x324 + 91605 x325 + 95913 x326 + 93640 x327 + 107432 x328
       + 91355 x329 + 97503 x330 + 103741 x331 + 94860 x332 + 98354 x333
       + 94913 x334 + 101710 x335 + 102502 x336 + 95289 x337 + 100326 x338
       + 108099 x339 + 101802 x340 + 98379 x341 + 107235 x342 + 99300 x343
       + 105132 x344 + 108466 x345 + 91698 x346 + 98450 x347 + 106479 x348
       + 98308 x349 + 91946 x350 + 104370 x351 + 100601 x352 + 105939 x353
       + 91694 x354 + 109056 x355 + 97606 x356 + 92934 x357 + 99708 x358
       + 100987 x359 + 107515 x360 + 102437 x361 + 90060 x362 + 93618 x363
       + 108548 x364 + 92810 x365 + 93280 x366 + 108574 x367 + 93955 x368
       + 98516 x369 + 92996 x370 + 101187 x371 + 103183 x372 + 95730 x373
       + 107168 x374 + 96151 x375 + 109383 x376 + 95985 x377 + 105782 x378
       + 90657 x379 + 97702 x380 + 105212 x381 + 91354 x382 + 105919 x383
       + 90046 x384 + 97419 x385 + 91214 x386 + 109854 x387 + 91383 x388
       + 100158 x389 + 108851 x390 + 101444 x391 + 93599 x392 + 107137 x393
       + 96751 x394 + 90789 x395 + 105951 x396 + 107020 x397 + 109012 x398
       + 97925 x399 + 104736 x400 + 106935 x401 + 108382 x402 + 108203 x403
       + 109067 x404 + 94169 x405 + 99471 x406 + 102346 x407 + 94488 x408
       + 100201 x409 + 97535 x410 + 105260 x411 + 91651 x412 + 107497 x413
       + 100532 x414 + 109264 x415 + 103408 x416 + 91364 x417 + 91097 x418
       + 104598 x419 + 90380 x420 + 102459 x421 + 92627 x422 + 99636 x423
       + 107929 x424 + 91672 x425 + 106706 x426 + 108187 x427 + 101381 x428
       + 90436 x429 + 94945 x430 + 103886 x431 + 92406 x432 + 98506 x433
       + 93679 x434 + 109177 x435 + 103432 x436 + 91749 x437 + 105188 x438
       + 104590 x439 + 96944 x440 + 106380 x441 + 90084 x442 + 106766 x443
       + 103882 x444 + 103403 x445 + 96457 x446 + 105773 x447 + 96715 x448
       + 99757 x449 + 108246 x450 + 106805 x451 + 108035 x452 + 104989 x453
       + 103492 x454 + 106513 x455 + 109000 x456 + 105319 x457 + 96846 x458
       + 100050 x459 + 100992 x460 + 90525 x461 + 100140 x462 + 101309 x463
       + 98625 x464 + 103352 x465 + 109839 x466 + 105904 x467 + 92507 x468
       + 105978 x469 + 100820 x470 + 94104 x471 + 96164 x472 + 103601 x473
       + 92217 x474 + 99243 x475 + 103093 x476 + 101276 x477 + 92950 x478
       + 96051 x479 + 107121 x480 + 92082 x481 + 90665 x482 + 92288 x483
       + 102102 x484 + 95291 x485 + 98996 x486 + 93492 x487 + 93350 x488
       + 93343 x489 + 100217 x490 + 98132 x491 + 106491 x492 + 108516 x493
       + 107647 x494 + 109509 x495 + 92293 x496 + 109359 x497 + 106326 x498
       + 90344 x499 + 102194 x500 + 100008 x501 + 99725 x502 + 99927 x503
       + 101511 x504 + 99369 x505 + 94026 x506 + 95135 x507 + 94444 x508
       + 103485 x509 + 99256 x510 + 103117 x511 + 103781 x512 + 102280 x513
       + 108946 x514 + 91588 x515 + 103377 x516 + 105281 x517 + 92956 x518
       + 96450 x519 + 97294 x520 + 100042 x521 + 101737 x522 + 95843 x523
       + 95888 x524 + 101667 x525 + 94521 x526 + 104748 x527 + 96214 x528
       + 92200 x529 + 108808 x530 + 104924 x531 + 91774 x532 + 94560 x533
       + 104005 x534 + 101212 x535 + 94930 x536 + 97325 x537 + 98175 x538
       + 107142 x539 + 94250 x540 + 108592 x541 + 102020 x542 + 94283 x543
       + 91037 x544 + 99900 x545 + 99500 x546 + 96237 x547 + 106955 x548
       + 107508 x549 + 103208 x550 + 100598 x551 + 109810 x552 + 108157 x553
       + 101717 x554 + 98085 x555 + 91745 x556 + 107976 x557 + 94409 x558
       + 103821 x559 + 103198 x560 + 95384 x561 + 102261 x562 + 101677 x563
       + 106213 x564 + 107127 x565 + 91708 x566 + 108540 x567 + 103740 x568
       + 103631 x569 + 105222 x570 + 90601 x571 + 98032 x572 + 94368 x573
       + 100102 x574 + 96147 x575 + 99400 x576 + 99147 x577 + 90391 x578
       + 92312 x579 + 90344 x580 + 96991 x581 + 105960 x582 + 106861 x583
       + 109486 x584 + 100738 x585 + 107468 x586 + 100324 x587 + 94743 x588
       + 102532 x589 + 106269 x590 + 108662 x591 + 95822 x592 + 103024 x593
       + 94277 x594 + 102110 x595 + 92384 x596 + 105462 x597 + 90381 x598
       + 101996 x599 + 84652 x600 + 411520 x601 + 436805 x602 + 426451 x603
       + 396131 x604 + 407045 x605 + 421564 x606 + 375753 x607 + 403394 x608
       + 403500 x609 + 416268 x610 + 404469 x611 + 380104 x612 + 429572 x613
       + 369893 x614 + 365418 x615 + 418382 x616 + 387903 x617 + 367926 x618
       + 436650 x619 + 385803 x620 + 423716 x621 + 375443 x622 + 365884 x623
       + 402567 x624 + 417203 x625 + 392115 x626 + 363467 x627 + 374720 x628
       + 393133 x629 + 419891 x630 + 393630 x631 + 410136 x632 + 415625 x633
       + 382936 x634 + 401987 x635 + 386587 x636 + 397920 x637 + 385729 x638
       + 372933 x639 + 371252 x640 + 406505 x641 + 409061 x642 + 433814 x643
       + 408651 x644 + 395853 x645 + 364981 x646 + 393424 x647 + 399037 x648
       + 394503 x649 + 360600 x650 + 400608 x651 + 381849 x652 + 375184 x653
       + 416951 x654 + 394436 x655 + 438945 x656 + 421096 x657 + 432968 x658
       + 410628 x659 + 469481 x660
Subject To
 c1:   - x11 + x19 - x20 + x31 - x34 - x37 - x52  = 0
 c2:   - x71 + x79 - x80 + x91 - x94 - x97 - x112  = 0
 c3:   - x131 + x139 - x140 + x151 - x154 - x157 - x172  = -1
 c4:   - x191 + x199 - x200 + x211 - x214 - x217 - x232  = 0
 c5:   - x251 + x259 - x260 + x271 - x274 - x277 - x292  = 0
 c6:   - x311 + x319 - x320 + x331 - x334 - x337 - x352  = 0
 c7:   - x371 + x379 - x380 + x391 - x394 - x397 - x412  = 1
 c8:   - x431 + x439 - x440 + x451 - x454 - x457 - x472  = 0
 c9:   - x491 + x499 - x500 + x511 - x514 - x517 - x532  = 0
 c10:  - x551 + x559 - x560 + x571 - x574 - x577 - x592  = -1
 c11:  - x29 + x32  = 0
 c12:  - x89 + x92  = 0
 c13:  - x149 + x152  = 0
 c14:  - x209 + x212  = 1
 c15:  - x269 + x272  = 0
 c16:  - x329 + x332  = 0
 c17:  - x389 + x392  = 0
 c18:  - x449 + x452  = 0
 c19:  - x509 + x512  = 1
 c20:  - x569 + x572  = 0
 c21:  - x9 - x10 - x15 + x17 + x22 - x43 + x58 - x60  = 0
 c22:  - x69 - x70 - x75 + x77 + x82 - x103 + x118 - x120  = 0
 c23:  - x129 - x130 - x135 + x137 + x142 - x163 + x178 - x180  = 0
 c24:  - x189 - x190 - x195 + x197 + x202 - x223 + x238 - x240  = 0
 c25:  - x249 - x250 - x255 + x257 + x262 - x283 + x298 - x300  = 0
 c26:  - x309 - x310 - x315 + x317 + x322 - x343 + x358 - x360  = 0
 c27:  - x369 - x370 - x375 + x377 + x382 - x403 + x418 - x420  = 0
 c28:  - x429 - x430 - x435 + x437 + x442 - x463 + x478 - x480  = -1
 c29:  - x489 - x490 - x495 + x497 + x502 - x523 + x538 - x540  = -1
 c30:  - x549 - x550 - x555 + x557 + x562 - x583 + x598 - x600  = 1
 c31:  - x2 + x4 - x6 - x8 - x41 + x43 + x48 - x49 + x57  = 0
 c32:  - x62 + x64 - x66 - x68 - x101 + x103 + x108 - x109 + x117  = 0
 c33:  - x122 + x124 - x126 - x128 - x161 + x163 + x168 - x169 + x177  = 0
 c34:  - x182 + x184 - x186 - x188 - x221 + x223 + x228 - x229 + x237  = 0
 c35:  - x242 + x244 - x246 - x248 - x281 + x283 + x288 - x289 + x297  = 0
 c36:  - x302 + x304 - x306 - x308 - x341 + x343 + x348 - x349 + x357  = 0
 c37:  - x362 + x364 - x366 - x368 - x401 + x403 + x408 - x409 + x417  = 0
 c38:  - x422 + x424 - x426 - x428 - x461 + x463 + x468 - x469 + x477  = 1
 c39:  - x482 + x484 - x486 - x488 - x521 + x523 + x528 - x529 + x537  = 0
 c40:  - x542 + x544 - x546 - x548 - x581 + x583 + x588 - x589 + x597  = 0
 c41:  x13 - x28 - x45 - x54 + x55  = 0
 c42:  x73 - x88 - x105 - x114 + x115  = 0
 c43:  x133 - x148 - x165 - x174 + x175  = 0
 c44:  x193 - x208 - x225 - x234 + x235  = -1
 c45:  x253 - x268 - x285 - x294 + x295  = 0
 c46:  x313 - x328 - x345 - x354 + x355  = 0
 c47:  x373 - x388 - x405 - x414 + x415  = 0
 c48:  x433 - x448 - x465 - x474 + x475  = 0
 c49:  x493 - x508 - x525 - x534 + x535  = 0
 c50:  x553 - x568 - x585 - x594 + x595  = 0
 c51:  - x5 + x11 - x27 - x33 + x39 - x50 + x54 + x59 + x60  = 0
 c52:  - x65 + x71 - x87 - x93 + x99 - x110 + x114 + x119 + x120  = 0
 c53:  - x125 + x131 - x147 - x153 + x159 - x170 + x174 + x179 + x180  = 0
 c54:  - x185 + x191 - x207 - x213 + x219 - x230 + x234 + x239 + x240  = 0
 c55:  - x245 + x251 - x267 - x273 + x279 - x290 + x294 + x299 + x300  = 0
 c56:  - x305 + x311 - x327 - x333 + x339 - x350 + x354 + x359 + x360  = 0
 c57:  - x365 + x371 - x387 - x393 + x399 - x410 + x414 + x419 + x420  = 0
 c58:  - x425 + x431 - x447 - x453 + x459 - x470 + x474 + x479 + x480  = 0
 c59:  - x485 + x491 - x507 - x513 + x519 - x530 + x534 + x539 + x540  = 0
 c60:  - x545 + x551 - x567 - x573 + x579 - x590 + x594 + x599 + x600  = 0
 c61:  - x1 - x3 + x6 + x7 - x12 - x14 + x18 - x22 + x23 - x24 + x26 + x35
       + x38 - x46 - x47 - x55 - x59  = 0
 c62:  - x61 - x63 + x66 + x67 - x72 - x74 + x78 - x82 + x83 - x84 + x86 + x95
       + x98 - x106 - x107 - x115 - x119  = 0
 c63:  - x121 - x123 + x126 + x127 - x132 - x134 + x138 - x142 + x143 - x144
       + x146 + x155 + x158 - x166 - x167 - x175 - x179  = 0
 c64:  - x181 - x183 + x186 + x187 - x192 - x194 + x198 - x202 + x203 - x204
       + x206 + x215 + x218 - x226 - x227 - x235 - x239  = 0
 c65:  - x241 - x243 + x246 + x247 - x252 - x254 + x258 - x262 + x263 - x264
       + x266 + x275 + x278 - x286 - x287 - x295 - x299  = 0
 c66:  - x301 - x303 + x306 + x307 - x312 - x314 + x318 - x322 + x323 - x324
       + x326 + x335 + x338 - x346 - x347 - x355 - x359  = 0
 c67:  - x361 - x363 + x366 + x367 - x372 - x374 + x378 - x382 + x383 - x384
       + x386 + x395 + x398 - x406 - x407 - x415 - x419  = 0
 c68:  - x421 - x423 + x426 + x427 - x432 - x434 + x438 - x442 + x443 - x444
       + x446 + x455 + x458 - x466 - x467 - x475 - x479  = 0
 c69:  - x481 - x483 + x486 + x487 - x492 - x494 + x498 - x502 + x503 - x504
       + x506 + x515 + x518 - x526 - x527 - x535 - x539  = 0
 c70:  - x541 - x543 + x546 + x547 - x552 - x554 + x558 - x562 + x563 - x564
       + x566 + x575 + x578 - x586 - x587 - x595 - x599  = 0
 c71:  x3 - x4 + x15 - x23 + x40 - x42 + x44  = 0
 c72:  x63 - x64 + x75 - x83 + x100 - x102 + x104  = 1
 c73:  x123 - x124 + x135 - x143 + x160 - x162 + x164  = 0
 c74:  x183 - x184 + x195 - x203 + x220 - x222 + x224  = 0
 c75:  x243 - x244 + x255 - x263 + x280 - x282 + x284  = 0
 c76:  x303 - x304 + x315 - x323 + x340 - x342 + x344  = -1
 c77:  x363 - x364 + x375 - x383 + x400 - x402 + x404  = 0
 c78:  x423 - x424 + x435 - x443 + x460 - x462 + x464  = 0
 c79:  x483 - x484 + x495 - x503 + x520 - x522 + x524  = 0
 c80:  x543 - x544 + x555 - x563 + x580 - x582 + x584  = 0
 c81:  - x13 - x17 + x24 - x35 + x37 + x41 + x42 - x44  = 0
 c82:  - x73 - x77 + x84 - x95 + x97 + x101 + x102 - x104  = 0
 c83:  - x133 - x137 + x144 - x155 + x157 + x161 + x162 - x164  = 0
 c84:  - x193 - x197 + x204 - x215 + x217 + x221 + x222 - x224  = 0
 c85:  - x253 - x257 + x264 - x275 + x277 + x281 + x282 - x284  = 0
 c86:  - x313 - x317 + x324 - x335 + x337 + x341 + x342 - x344  = 0
 c87:  - x373 - x377 + x384 - x395 + x397 + x401 + x402 - x404  = 0
 c88:  - x433 - x437 + x444 - x455 + x457 + x461 + x462 - x464  = 0
 c89:  - x493 - x497 + x504 - x515 + x517 + x521 + x522 - x524  = 0
 c90:  - x553 - x557 + x564 - x575 + x577 + x581 + x582 - x584  = 0
 c91:  x1 + x10 + x16 + x34 - x38 - x40 + x49 + x51 - x58  = 0
 c92:  x61 + x70 + x76 + x94 - x98 - x100 + x109 + x111 - x118  = 0
 c93:  x121 + x130 + x136 + x154 - x158 - x160 + x169 + x171 - x178  = 0
 c94:  x181 + x190 + x196 + x214 - x218 - x220 + x229 + x231 - x238  = 0
 c95:  x241 + x250 + x256 + x274 - x278 - x280 + x289 + x291 - x298  = -1
 c96:  x301 + x310 + x316 + x334 - x338 - x340 + x349 + x351 - x358  = 0
 c97:  x361 + x370 + x376 + x394 - x398 - x400 + x409 + x411 - x418  = 0
 c98:  x421 + x430 + x436 + x454 - x458 - x460 + x469 + x471 - x478  = 0
 c99:  x481 + x490 + x496 + x514 - x518 - x520 + x529 + x531 - x538  = 0
 c100: x541 + x550 + x556 + x574 - x578 - x580 + x589 + x591 - x598  = 0
 c101: x14 - x16 - x31 + x36 + x52 - x53 - x56  = 0
 c102: x74 - x76 - x91 + x96 + x112 - x113 - x116  = 0
 c103: x134 - x136 - x151 + x156 + x172 - x173 - x176  = 0
 c104: x194 - x196 - x211 + x216 + x232 - x233 - x236  = 0
 c105: x254 - x256 - x271 + x276 + x292 - x293 - x296  = 1
 c106: x314 - x316 - x331 + x336 + x352 - x353 - x356  = 0
 c107: x374 - x376 - x391 + x396 + x412 - x413 - x416  = 0
 c108: x434 - x436 - x451 + x456 + x472 - x473 - x476  = 0
 c109: x494 - x496 - x511 + x516 + x532 - x533 - x536  = 0
 c110: x554 - x556 - x571 + x576 + x592 - x593 - x596  = 0
 c111: x2 + x20 - x25 - x26 + x30 + x33  = 0
 c112: x62 + x80 - x85 - x86 + x90 + x93  = -1
 c113: x122 + x140 - x145 - x146 + x150 + x153  = 1
 c114: x182 + x200 - x205 - x206 + x210 + x213  = 0
 c115: x242 + x260 - x265 - x266 + x270 + x273  = 0
 c116: x302 + x320 - x325 - x326 + x330 + x333  = 0
 c117: x362 + x380 - x385 - x386 + x390 + x393  = 0
 c118: x422 + x440 - x445 - x446 + x450 + x453  = 0
 c119: x482 + x500 - x505 - x506 + x510 + x513  = 0
 c120: x542 + x560 - x565 - x566 + x570 + x573  = 0
 c121: x9 + x12 + x21 + x27 + x28 + x29 - x30 - x51 + x53  = 0
 c122: x69 + x72 + x81 + x87 + x88 + x89 - x90 - x111 + x113  = 0
 c123: x129 + x132 + x141 + x147 + x148 + x149 - x150 - x171 + x173  = 0
 c124: x189 + x192 + x201 + x207 + x208 + x209 - x210 - x231 + x233  = 0
 c125: x249 + x252 + x261 + x267 + x268 + x269 - x270 - x291 + x293  = 0
 c126: x309 + x312 + x321 + x327 + x328 + x329 - x330 - x351 + x353  = 0
 c127: x369 + x372 + x381 + x387 + x388 + x389 - x390 - x411 + x413  = 0
 c128: x429 + x432 + x441 + x447 + x448 + x449 - x450 - x471 + x473  = 0
 c129: x489 + x492 + x501 + x507 + x508 + x509 - x510 - x531 + x533  = 0
 c130: x549 + x552 + x561 + x567 + x568 + x569 - x570 - x591 + x593  = 0
 c131: - x7 + x25 - x32 - x39 + x45 + x47 - x48 + x50  = -1
 c132: - x67 + x85 - x92 - x99 + x105 + x107 - x108 + x110  = 0
 c133: - x127 + x145 - x152 - x159 + x165 + x167 - x168 + x170  = 0
 c134: - x187 + x205 - x212 - x219 + x225 + x227 - x228 + x230  = 0
 c135: - x247 + x265 - x272 - x279 + x285 + x287 - x288 + x290  = 0
 c136: - x307 + x325 - x332 - x339 + x345 + x347 - x348 + x350  = 1
 c137: - x367 + x385 - x392 - x399 + x405 + x407 - x408 + x410  = 0
 c138: - x427 + x445 - x452 - x459 + x465 + x467 - x468 + x470  = 0
 c139: - x487 + x505 - x512 - x519 + x525 + x527 - x528 + x530  = 0
 c140: - x547 + x565 - x572 - x579 + x585 + x587 - x588 + x590  = 0
 c141: x5 + x8 - x18 - x19 - x21 - x36 + x46 + x56 - x57  = 1
 c142: x65 + x68 - x78 - x79 - x81 - x96 + x106 + x116 - x117  = 0
 c143: x125 + x128 - x138 - x139 - x141 - x156 + x166 + x176 - x177  = 0
 c144: x185 + x188 - x198 - x199 - x201 - x216 + x226 + x236 - x237  = 0
 c145: x245 + x248 - x258 - x259 - x261 - x276 + x286 + x296 - x297  = 0
 c146: x305 + x308 - x318 - x319 - x321 - x336 + x346 + x356 - x357  = 0
 c147: x365 + x368 - x378 - x379 - x381 - x396 + x406 + x416 - x417  = -1
 c148: x425 + x428 - x438 - x439 - x441 - x456 + x466 + x476 - x477  = 0
 c149: x485 + x488 - x498 - x499 - x501 - x516 + x526 + x536 - x537  = 0
 c150: x545 + x548 - x558 - x559 - x561 - x576 + x586 + x596 - x597  = 0
 c151: 4 x1 + 4 x61 + 4 x121 + 4 x181 + 4 x241 + 4 x301 + 4 x361 + 4 x421
       + 4 x481 + 4 x541 - 18 x601 <= 0
 c152: 4 x2 + 4 x62 + 4 x122 + 4 x182 + 4 x242 + 4 x302 + 4 x362 + 4 x422
       + 4 x482 + 4 x542 - 22 x602 <= 0
 c153: 4 x3 + 4 x63 + 4 x123 + 4 x183 + 4 x243 + 4 x303 + 4 x363 + 4 x423
       + 4 x483 + 4 x543 - 20 x603 <= 0
 c154: 4 x4 + 4 x64 + 4 x124 + 4 x184 + 4 x244 + 4 x304 + 4 x364 + 4 x424
       + 4 x484 + 4 x544 - 19 x604 <= 0
 c155: 4 x5 + 4 x65 + 4 x125 + 4 x185 + 4 x245 + 4 x305 + 4 x365 + 4 x425
       + 4 x485 + 4 x545 - 18 x605 <= 0
 c156: 4 x6 + 4 x66 + 4 x126 + 4 x186 + 4 x246 + 4 x306 + 4 x366 + 4 x426
       + 4 x486 + 4 x546 - 20 x606 <= 0
 c157: 4 x7 + 4 x67 + 4 x127 + 4 x187 + 4 x247 + 4 x307 + 4 x367 + 4 x427
       + 4 x487 + 4 x547 - 20 x607 <= 0
 c158: 4 x8 + 4 x68 + 4 x128 + 4 x188 + 4 x248 + 4 x308 + 4 x368 + 4 x428
       + 4 x488 + 4 x548 - 21 x608 <= 0
 c159: 4 x9 + 4 x69 + 4 x129 + 4 x189 + 4 x249 + 4 x309 + 4 x369 + 4 x429
       + 4 x489 + 4 x549 - 19 x609 <= 0
 c160: 4 x10 + 4 x70 + 4 x130 + 4 x190 + 4 x250 + 4 x310 + 4 x370 + 4 x430
       + 4 x490 + 4 x550 - 20 x610 <= 0
 c161: 4 x11 + 4 x71 + 4 x131 + 4 x191 + 4 x251 + 4 x311 + 4 x371 + 4 x431
       + 4 x491 + 4 x551 - 18 x611 <= 0
 c162: 4 x12 + 4 x72 + 4 x132 + 4 x192 + 4 x252 + 4 x312 + 4 x372 + 4 x432
       + 4 x492 + 4 x552 - 19 x612 <= 0
 c163: 4 x13 + 4 x73 + 4 x133 + 4 x193 + 4 x253 + 4 x313 + 4 x373 + 4 x433
       + 4 x493 + 4 x553 - 18 x613 <= 0
 c164: 4 x14 + 4 x74 + 4 x134 + 4 x194 + 4 x254 + 4 x314 + 4 x374 + 4 x434
       + 4 x494 + 4 x554 - 20 x614 <= 0
 c165: 4 x15 + 4 x75 + 4 x135 + 4 x195 + 4 x255 + 4 x315 + 4 x375 + 4 x435
       + 4 x495 + 4 x555 - 20 x615 <= 0
 c166: 4 x16 + 4 x76 + 4 x136 + 4 x196 + 4 x256 + 4 x316 + 4 x376 + 4 x436
       + 4 x496 + 4 x556 - 21 x616 <= 0
 c167: 4 x17 + 4 x77 + 4 x137 + 4 x197 + 4 x257 + 4 x317 + 4 x377 + 4 x437
       + 4 x497 + 4 x557 - 20 x617 <= 0
 c168: 4 x18 + 4 x78 + 4 x138 + 4 x198 + 4 x258 + 4 x318 + 4 x378 + 4 x438
       + 4 x498 + 4 x558 - 21 x618 <= 0
 c169: 4 x19 + 4 x79 + 4 x139 + 4 x199 + 4 x259 + 4 x319 + 4 x379 + 4 x439
       + 4 x499 + 4 x559 - 22 x619 <= 0
 c170: 4 x20 + 4 x80 + 4 x140 + 4 x200 + 4 x260 + 4 x320 + 4 x380 + 4 x440
       + 4 x500 + 4 x560 - 22 x620 <= 0
 c171: 4 x21 + 4 x81 + 4 x141 + 4 x201 + 4 x261 + 4 x321 + 4 x381 + 4 x441
       + 4 x501 + 4 x561 - 20 x621 <= 0
 c172: 4 x22 + 4 x82 + 4 x142 + 4 x202 + 4 x262 + 4 x322 + 4 x382 + 4 x442
       + 4 x502 + 4 x562 - 19 x622 <= 0
 c173: 4 x23 + 4 x83 + 4 x143 + 4 x203 + 4 x263 + 4 x323 + 4 x383 + 4 x443
       + 4 x503 + 4 x563 - 22 x623 <= 0
 c174: 4 x24 + 4 x84 + 4 x144 + 4 x204 + 4 x264 + 4 x324 + 4 x384 + 4 x444
       + 4 x504 + 4 x564 - 19 x624 <= 0
 c175: 4 x25 + 4 x85 + 4 x145 + 4 x205 + 4 x265 + 4 x325 + 4 x385 + 4 x445
       + 4 x505 + 4 x565 - 19 x625 <= 0
 c176: 4 x26 + 4 x86 + 4 x146 + 4 x206 + 4 x266 + 4 x326 + 4 x386 + 4 x446
       + 4 x506 + 4 x566 - 21 x626 <= 0
 c177: 4 x27 + 4 x87 + 4 x147 + 4 x207 + 4 x267 + 4 x327 + 4 x387 + 4 x447
       + 4 x507 + 4 x567 - 21 x627 <= 0
 c178: 4 x28 + 4 x88 + 4 x148 + 4 x208 + 4 x268 + 4 x328 + 4 x388 + 4 x448
       + 4 x508 + 4 x568 - 19 x628 <= 0
 c179: 4 x29 + 4 x89 + 4 x149 + 4 x209 + 4 x269 + 4 x329 + 4 x389 + 4 x449
       + 4 x509 + 4 x569 - 19 x629 <= 0
 c180: 4 x30 + 4 x90 + 4 x150 + 4 x210 + 4 x270 + 4 x330 + 4 x390 + 4 x450
       + 4 x510 + 4 x570 - 20 x630 <= 0
 c181: 4 x31 + 4 x91 + 4 x151 + 4 x211 + 4 x271 + 4 x331 + 4 x391 + 4 x451
       + 4 x511 + 4 x571 - 19 x631 <= 0
 c182: 4 x32 + 4 x92 + 4 x152 + 4 x212 + 4 x272 + 4 x332 + 4 x392 + 4 x452
       + 4 x512 + 4 x572 - 19 x632 <= 0
 c183: 4 x33 + 4 x93 + 4 x153 + 4 x213 + 4 x273 + 4 x333 + 4 x393 + 4 x453
       + 4 x513 + 4 x573 - 19 x633 <= 0
 c184: 4 x34 + 4 x94 + 4 x154 + 4 x214 + 4 x274 + 4 x334 + 4 x394 + 4 x454
       + 4 x514 + 4 x574 - 19 x634 <= 0
 c185: 4 x35 + 4 x95 + 4 x155 + 4 x215 + 4 x275 + 4 x335 + 4 x395 + 4 x455
       + 4 x515 + 4 x575 - 21 x635 <= 0
 c186: 4 x36 + 4 x96 + 4 x156 + 4 x216 + 4 x276 + 4 x336 + 4 x396 + 4 x456
       + 4 x516 + 4 x576 - 19 x636 <= 0
 c187: 4 x37 + 4 x97 + 4 x157 + 4 x217 + 4 x277 + 4 x337 + 4 x397 + 4 x457
       + 4 x517 + 4 x577 - 21 x637 <= 0
 c188: 4 x38 + 4 x98 + 4 x158 + 4 x218 + 4 x278 + 4 x338 + 4 x398 + 4 x458
       + 4 x518 + 4 x578 - 21 x638 <= 0
 c189: 4 x39 + 4 x99 + 4 x159 + 4 x219 + 4 x279 + 4 x339 + 4 x399 + 4 x459
       + 4 x519 + 4 x579 - 20 x639 <= 0
 c190: 4 x40 + 4 x100 + 4 x160 + 4 x220 + 4 x280 + 4 x340 + 4 x400 + 4 x460
       + 4 x520 + 4 x580 - 18 x640 <= 0
 c191: 4 x41 + 4 x101 + 4 x161 + 4 x221 + 4 x281 + 4 x341 + 4 x401 + 4 x461
       + 4 x521 + 4 x581 - 22 x641 <= 0
 c192: 4 x42 + 4 x102 + 4 x162 + 4 x222 + 4 x282 + 4 x342 + 4 x402 + 4 x462
       + 4 x522 + 4 x582 - 22 x642 <= 0
 c193: 4 x43 + 4 x103 + 4 x163 + 4 x223 + 4 x283 + 4 x343 + 4 x403 + 4 x463
       + 4 x523 + 4 x583 - 20 x643 <= 0
 c194: 4 x44 + 4 x104 + 4 x164 + 4 x224 + 4 x284 + 4 x344 + 4 x404 + 4 x464
       + 4 x524 + 4 x584 - 19 x644 <= 0
 c195: 4 x45 + 4 x105 + 4 x165 + 4 x225 + 4 x285 + 4 x345 + 4 x405 + 4 x465
       + 4 x525 + 4 x585 - 20 x645 <= 0
 c196: 4 x46 + 4 x106 + 4 x166 + 4 x226 + 4 x286 + 4 x346 + 4 x406 + 4 x466
       + 4 x526 + 4 x586 - 19 x646 <= 0
 c197: 4 x47 + 4 x107 + 4 x167 + 4 x227 + 4 x287 + 4 x347 + 4 x407 + 4 x467
       + 4 x527 + 4 x587 - 22 x647 <= 0
 c198: 4 x48 + 4 x108 + 4 x168 + 4 x228 + 4 x288 + 4 x348 + 4 x408 + 4 x468
       + 4 x528 + 4 x588 - 18 x648 <= 0
 c199: 4 x49 + 4 x109 + 4 x169 + 4 x229 + 4 x289 + 4 x349 + 4 x409 + 4 x469
       + 4 x529 + 4 x589 - 21 x649 <= 0
 c200: 4 x50 + 4 x110 + 4 x170 + 4 x230 + 4 x290 + 4 x350 + 4 x410 + 4 x470
       + 4 x530 + 4 x590 - 18 x650 <= 0
 c201: 4 x51 + 4 x111 + 4 x171 + 4 x231 + 4 x291 + 4 x351 + 4 x411 + 4 x471
       + 4 x531 + 4 x591 - 21 x651 <= 0
 c202: 4 x52 + 4 x112 + 4 x172 + 4 x232 + 4 x292 + 4 x352 + 4 x412 + 4 x472
       + 4 x532 + 4 x592 - 20 x652 <= 0
 c203: 4 x53 + 4 x113 + 4 x173 + 4 x233 + 4 x293 + 4 x353 + 4 x413 + 4 x473
       + 4 x533 + 4 x593 - 22 x653 <= 0
 c204: 4 x54 + 4 x114 + 4 x174 + 4 x234 + 4 x294 + 4 x354 + 4 x414 + 4 x474
       + 4 x534 + 4 x594 - 19 x654 <= 0
 c205: 4 x55 + 4 x115 + 4 x175 + 4 x235 + 4 x295 + 4 x355 + 4 x415 + 4 x475
       + 4 x535 + 4 x595 - 19 x655 <= 0
 c206: 4 x56 + 4 x116 + 4 x176 + 4 x236 + 4 x296 + 4 x356 + 4 x416 + 4 x476
       + 4 x536 + 4 x596 - 22 x656 <= 0
 c207: 4 x57 + 4 x117 + 4 x177 + 4 x237 + 4 x297 + 4 x357 + 4 x417 + 4 x477
       + 4 x537 + 4 x597 - 20 x657 <= 0
 c208: 4 x58 + 4 x118 + 4 x178 + 4 x238 + 4 x298 + 4 x358 + 4 x418 + 4 x478
       + 4 x538 + 4 x598 - 22 x658 <= 0
 c209: 4 x59 + 4 x119 + 4 x179 + 4 x239 + 4 x299 + 4 x359 + 4 x419 + 4 x479
       + 4 x539 + 4 x599 - 22 x659 <= 0
 c210: 4 x60 + 4 x120 + 4 x180 + 4 x240 + 4 x300 + 4 x360 + 4 x420 + 4 x480
       + 4 x540 + 4 x600 - 19 x660 <= 0
Bounds
 0 <= x1 <= 1
 0 <= x2 <= 1
 0 <= x3 <= 1
 0 <= x4 <= 1
 0 <= x5 <= 1
 0 <= x6 <= 1
 0 <= x7 <= 1
 0 <= x8 <= 1
 0 <= x9 <= 1
 0 <= x10 <= 1
 0 <= x11 <= 1
 0 <= x12 <= 1
 0 <= x13 <= 1
 0 <= x14 <= 1
 0 <= x15 <= 1
 0 <= x16 <= 1
 0 <= x17 <= 1
 0 <= x18 <= 1
 0 <= x19 <= 1
 0 <= x20 <= 1
 0 <= x21 <= 1
 0 <= x22 <= 1
 0 <= x23 <= 1
 0 <= x24 <= 1
 0 <= x25 <= 1
 0 <= x26 <= 1
 0 <= x27 <= 1
 0 <= x28 <= 1
 0 <= x29 <= 1
 0 <= x30 <= 1
 0 <= x31 <= 1
 0 <= x32 <= 1
 0 <= x33 <= 1
 0 <= x34 <= 1
 0 <= x35 <= 1
 0 <= x36 <= 1
 0 <= x37 <= 1
 0 <= x38 <= 1
 0 <= x39 <= 1
 0 <= x40 <= 1
 0 <= x41 <= 1
 0 <= x42 <= 1
 0 <= x43 <= 1
 0 <= x44 <= 1
 0 <= x45 <= 1
 0 <= x46 <= 1
 0 <= x47 <= 1
 0 <= x48 <= 1
 0 <= x49 <= 1
 0 <= x50 <= 1
 0 <= x51 <= 1
 0 <= x52 <= 1
 0 <= x53 <= 1
 0 <= x54 <= 1
 0 <= x55 <= 1
 0 <= x56 <= 1
 0 <= x57 <= 1
 0 <= x58 <= 1
 0 <= x59 <= 1
 0 <= x60 <= 1
 0 <= x61 <= 1
 0 <= x62 <= 1
 0 <= x63 <= 1
 0 <= x64 <= 1
 0 <= x65 <= 1
 0 <= x66 <= 1
 0 <= x67 <= 1
 0 <= x68 <= 1
 0 <= x69 <= 1
 0 <= x70 <= 1
 0 <= x71 <= 1
 0 <= x72 <= 1
 0 <= x73 <= 1
 0 <= x74 <= 1
 0 <= x75 <= 1
 0 <= x76 <= 1
 0 <= x77 <= 1
 0 <= x78 <= 1
 0 <= x79 <= 1
 0 <= x80 <= 1
 0 <= x81 <= 1
 0 <= x82 <= 1
 0 <= x83 <= 1
 0 <= x84 <= 1
 0 <= x85 <= 1
 0 <= x86 <= 1
 0 <= x87 <= 1
 0 <= x88 <= 1
 0 <= x89 <= 1
 0 <= x90 <= 1
 0 <= x91 <= 1
 0 <= x92 <= 1
 0 <= x93 <= 1
 0 <= x94 <= 1
 0 <= x95 <= 1
 0 <= x96 <= 1
 0 <= x97 <= 1
 0 <= x98 <= 1
 0 <= x99 <= 1
 0 <= x100 <= 1
 0 <= x101 <= 1
 0 <= x102 <= 1
 0 <= x103 <= 1
 0 <= x104 <= 1
 0 <= x105 <= 1
 0 <= x106 <= 1
 0 <= x107 <= 1
 0 <= x108 <= 1
 0 <= x109 <= 1
 0 <= x110 <= 1
 0 <= x111 <= 1
 0 <= x112 <= 1
 0 <= x113 <= 1
 0 <= x114 <= 1
 0 <= x115 <= 1
 0 <= x116 <= 1
 0 <= x117 <= 1
 0 <= x118 <= 1
 0 <= x119 <= 1
 0 <= x120 <= 1
 0 <= x121 <= 1
 0 <= x122 <= 1
 0 <= x123 <= 1
 0 <= x124 <= 1
 0 <= x125 <= 1
 0 <= x126 <= 1
 0 <= x127 <= 1
 0 <= x128 <= 1
 0 <= x129 <= 1
 0 <= x130 <= 1
 0 <= x131 <= 1
 0 <= x132 <= 1
 0 <= x133 <= 1
 0 <= x134 <= 1
 0 <= x135 <= 1
 0 <= x136 <= 1
 0 <= x137 <= 1
 0 <= x138 <= 1
 0 <= x139 <= 1
 0 <= x140 <= 1
 0 <= x141 <= 1
 0 <= x142 <= 1
 0 <= x143 <= 1
 0 <= x144 <= 1
 0 <= x145 <= 1
 0 <= x146 <= 1
 0 <= x147 <= 1
 0 <= x148 <= 1
 0 <= x149 <= 1
 0 <= x150 <= 1
 0 <= x151 <= 1
 0 <= x152 <= 1
 0 <= x153 <= 1
 0 <= x154 <= 1
 0 <= x155 <= 1
 0 <= x156 <= 1
 0 <= x157 <= 1
 0 <= x158 <= 1
 0 <= x159 <= 1
 0 <= x160 <= 1
 0 <= x161 <= 1
 0 <= x162 <= 1
 0 <= x163 <= 1
 0 <= x164 <= 1
 0 <= x165 <= 1
 0 <= x166 <= 1
 0 <= x167 <= 1
 0 <= x168 <= 1
 0 <= x169 <= 1
 0 <= x170 <= 1
 0 <= x171 <= 1
 0 <= x172 <= 1
 0 <= x173 <= 1
 0 <= x174 <= 1
 0 <= x175 <= 1
 0 <= x176 <= 1
 0 <= x177 <= 1
 0 <= x178 <= 1
 0 <= x179 <= 1
 0 <= x180 <= 1
 0 <= x181 <= 1
 0 <= x182 <= 1
 0 <= x183 <= 1
 0 <= x184 <= 1
 0 <= x185 <= 1
 0 <= x186 <= 1
 0 <= x187 <= 1
 0 <= x188 <= 1
 0 <= x189 <= 1
 0 <= x190 <= 1
 0 <= x191 <= 1
 0 <= x192 <= 1
 0 <= x193 <= 1
 0 <= x194 <= 1
 0 <= x195 <= 1
 0 <= x196 <= 1
 0 <= x197 <= 1
 0 <= x198 <= 1
 0 <= x199 <= 1
 0 <= x200 <= 1
 0 <= x201 <= 1
 0 <= x202 <= 1
 0 <= x203 <= 1
 0 <= x204 <= 1
 0 <= x205 <= 1
 0 <= x206 <= 1
 0 <= x207 <= 1
 0 <= x208 <= 1
 0 <= x209 <= 1
 0 <= x210 <= 1
 0 <= x211 <= 1
 0 <= x212 <= 1
 0 <= x213 <= 1
 0 <= x214 <= 1
 0 <= x215 <= 1
 0 <= x216 <= 1
 0 <= x217 <= 1
 0 <= x218 <= 1
 0 <= x219 <= 1
 0 <= x220 <= 1
 0 <= x221 <= 1
 0 <= x222 <= 1
 0 <= x223 <= 1
 0 <= x224 <= 1
 0 <= x225 <= 1
 0 <= x226 <= 1
 0 <= x227 <= 1
 0 <= x228 <= 1
 0 <= x229 <= 1
 0 <= x230 <= 1
 0 <= x231 <= 1
 0 <= x232 <= 1
 0 <= x233 <= 1
 0 <= x234 <= 1
 0 <= x235 <= 1
 0 <= x236 <= 1
 0 <= x237 <= 1
 0 <= x238 <= 1
 0 <= x239 <= 1
 0 <= x240 <= 1
 0 <= x241 <= 1
 0 <= x242 <= 1
 0 <= x243 <= 1
 0 <= x244 <= 1
 0 <= x245 <= 1
 0 <= x246 <= 1
 0 <= x247 <= 1
 0 <= x248 <= 1
 0 <= x249 <= 1
 0 <= x250 <= 1
 0 <= x251 <= 1
 0 <= x252 <= 1
 0 <= x253 <= 1
 0 <= x254 <= 1
 0 <= x255 <= 1
 0 <= x256 <= 1
 0 <= x257 <= 1
 0 <= x258 <= 1
 0 <= x259 <= 1
 0 <= x260 <= 1
 0 <= x261 <= 1
 0 <= x262 <= 1
 0 <= x263 <= 1
 0 <= x264 <= 1
 0 <= x265 <= 1
 0 <= x266 <= 1
 0 <= x267 <= 1
 0 <= x268 <= 1
 0 <= x269 <= 1
 0 <= x270 <= 1
 0 <= x271 <= 1
 0 <= x272 <= 1
 0 <= x273 <= 1
 0 <= x274 <= 1
 0 <= x275 <= 1
 0 <= x276 <= 1
 0 <= x277 <= 1
 0 <= x278 <= 1
 0 <= x279 <= 1
 0 <= x280 <= 1
 0 <= x281 <= 1
 0 <= x282 <= 1
 0 <= x283 <= 1
 0 <= x284 <= 1
 0 <= x285 <= 1
 0 <= x286 <= 1
 0 <= x287 <= 1
 0 <= x288 <= 1
 0 <= x289 <= 1
 0 <= x290 <= 1
 0 <= x291 <= 1
 0 <= x292 <= 1
 0 <= x293 <= 1
 0 <= x294 <= 1
 0 <= x295 <= 1
 0 <= x296 <= 1
 0 <= x297 <= 1
 0 <= x298 <= 1
 0 <= x299 <= 1
 0 <= x300 <= 1
 0 <= x301 <= 1
 0 <= x302 <= 1
 0 <= x303 <= 1
 0 <= x304 <= 1
 0 <= x305 <= 1
 0 <= x306 <= 1
 0 <= x307 <= 1
 0 <= x308 <= 1
 0 <= x309 <= 1
 0 <= x310 <= 1
 0 <= x311 <= 1
 0 <= x312 <= 1
 0 <= x313 <= 1
 0 <= x314 <= 1
 0 <= x315 <= 1
 0 <= x316 <= 1
 0 <= x317 <= 1
 0 <= x318 <= 1
 0 <= x319 <= 1
 0 <= x320 <= 1
 0 <= x321 <= 1
 0 <= x322 <= 1
 0 <= x323 <= 1
 0 <= x324 <= 1
 0 <= x325 <= 1
 0 <= x326 <= 1
 0 <= x327 <= 1
 0 <= x328 <= 1
 0 <= x329 <= 1
 0 <= x330 <= 1
 0 <= x331 <= 1
 0 <= x332 <= 1
 0 <= x333 <= 1
 0 <= x334 <= 1
 0 <= x335 <= 1
 0 <= x336 <= 1
 0 <= x337 <= 1
 0 <= x338 <= 1
 0 <= x339 <= 1
 0 <= x340 <= 1
 0 <= x341 <= 1
 0 <= x342 <= 1
 0 <= x343 <= 1
 0 <= x344 <= 1
 0 <= x345 <= 1
 0 <= x346 <= 1
 0 <= x347 <= 1
 0 <= x348 <= 1
 0 <= x349 <= 1
 0 <= x350 <= 1
 0 <= x351 <= 1
 0 <= x352 <= 1
 0 <= x353 <= 1
 0 <= x354 <= 1
 0 <= x355 <= 1
 0 <= x356 <= 1
 0 <= x357 <= 1
 0 <= x358 <= 1
 0 <= x359 <= 1
 0 <= x360 <= 1
 0 <= x361 <= 1
 0 <= x362 <= 1
 0 <= x363 <= 1
 0 <= x364 <= 1
 0 <= x365 <= 1
 0 <= x366 <= 1
 0 <= x367 <= 1
 0 <= x368 <= 1
 0 <= x369 <= 1
 0 <= x370 <= 1
 0 <= x371 <= 1
 0 <= x372 <= 1
 0 <= x373 <= 1
 0 <= x374 <= 1
 0 <= x375 <= 1
 0 <= x376 <= 1
 0 <= x377 <= 1
 0 <= x378 <= 1
 0 <= x379 <= 1
 0 <= x380 <= 1
 0 <= x381 <= 1
 0 <= x382 <= 1
 0 <= x383 <= 1
 0 <= x384 <= 1
 0 <= x385 <= 1
 0 <= x386 <= 1
 0 <= x387 <= 1
 0 <= x388 <= 1
 0 <= x389 <= 1
 0 <= x390 <= 1
 0 <= x391 <= 1
 0 <= x392 <= 1
 0 <= x393 <= 1
 0 <= x394 <= 1
 0 <= x395 <= 1
 0 <= x396 <= 1
 0 <= x397 <= 1
 0 <= x398 <= 1
 0 <= x399 <= 1
 0 <= x400 <= 1
 0 <= x401 <= 1
 0 <= x402 <= 1
 0 <= x403 <= 1
 0 <= x404 <= 1
 0 <= x405 <= 1
 0 <= x406 <= 1
 0 <= x407 <= 1
 0 <= x408 <= 1
 0 <= x409 <= 1
 0 <= x410 <= 1
 0 <= x411 <= 1
 0 <= x412 <= 1
 0 <= x413 <= 1
 0 <= x414 <= 1
 0 <= x415 <= 1
 0 <= x416 <= 1
 0 <= x417 <= 1
 0 <= x418 <= 1
 0 <= x419 <= 1
 0 <= x420 <= 1
 0 <= x421 <= 1
 0 <= x422 <= 1
 0 <= x423 <= 1
 0 <= x424 <= 1
 0 <= x425 <= 1
 0 <= x426 <= 1
 0 <= x427 <= 1
 0 <= x428 <= 1
 0 <= x429 <= 1
 0 <= x430 <= 1
 0 <= x431 <= 1
 0 <= x432 <= 1
 0 <= x433 <= 1
 0 <= x434 <= 1
 0 <= x435 <= 1
 0 <= x436 <= 1
 0 <= x437 <= 1
 0 <= x438 <= 1
 0 <= x439 <= 1
 0 <= x440 <= 1
 0 <= x441 <= 1
 0 <= x442 <= 1
 0 <= x443 <= 1
 0 <= x444 <= 1
 0 <= x445 <= 1
 0 <= x446 <= 1
 0 <= x447 <= 1
 0 <= x448 <= 1
 0 <= x449 <= 1
 0 <= x450 <= 1
 0 <= x451 <= 1
 0 <= x452 <= 1
 0 <= x453 <= 1
 0 <= x454 <= 1
 0 <= x455 <= 1
 0 <= x456 <= 1
 0 <= x457 <= 1
 0 <= x458 <= 1
 0 <= x459 <= 1
 0 <= x460 <= 1
 0 <= x461 <= 1
 0 <= x462 <= 1
 0 <= x463 <= 1
 0 <= x464 <= 1
 0 <= x465 <= 1
 0 <= x466 <= 1
 0 <= x467 <= 1
 0 <= x468 <= 1
 0 <= x469 <= 1
 0 <= x470 <= 1
 0 <= x471 <= 1
 0 <= x472 <= 1
 0 <= x473 <= 1
 0 <= x474 <= 1
 0 <= x475 <= 1
 0 <= x476 <= 1
 0 <= x477 <= 1
 0 <= x478 <= 1
 0 <= x479 <= 1
 0 <= x480 <= 1
 0 <= x481 <= 1
 0 <= x482 <= 1
 0 <= x483 <= 1
 0 <= x484 <= 1
 0 <= x485 <= 1
 0 <= x486 <= 1
 0 <= x487 <= 1
 0 <= x488 <= 1
 0 <= x489 <= 1
 0 <= x490 <= 1
 0 <= x491 <= 1
 0 <= x492 <= 1
 0 <= x493 <= 1
 0 <= x494 <= 1
 0 <= x495 <= 1
 0 <= x496 <= 1
 0 <= x497 <= 1
 0 <= x498 <= 1
 0 <= x499 <= 1
 0 <= x500 <= 1
 0 <= x501 <= 1
 0 <= x502 <= 1
 0 <= x503 <= 1
 0 <= x504 <= 1
 0 <= x505 <= 1
 0 <= x506 <= 1
 0 <= x507 <= 1
 0 <= x508 <= 1
 0 <= x509 <= 1
 0 <= x510 <= 1
 0 <= x511 <= 1
 0 <= x512 <= 1
 0 <= x513 <= 1
 0 <= x514 <= 1
 0 <= x515 <= 1
 0 <= x516 <= 1
 0 <= x517 <= 1
 0 <= x518 <= 1
 0 <= x519 <= 1
 0 <= x520 <= 1
 0 <= x521 <= 1
 0 <= x522 <= 1
 0 <= x523 <= 1
 0 <= x524 <= 1
 0 <= x525 <= 1
 0 <= x526 <= 1
 0 <= x527 <= 1
 0 <= x528 <= 1
 0 <= x529 <= 1
 0 <= x530 <= 1
 0 <= x531 <= 1
 0 <= x532 <= 1
 0 <= x533 <= 1
 0 <= x534 <= 1
 0 <= x535 <= 1
 0 <= x536 <= 1
 0 <= x537 <= 1
 0 <= x538 <= 1
 0 <= x539 <= 1
 0 <= x540 <= 1
 0 <= x541 <= 1
 0 <= x542 <= 1
 0 <= x543 <= 1
 0 <= x544 <= 1
 0 <= x545 <= 1
 0 <= x546 <= 1
 0 <= x547 <= 1
 0 <= x548 <= 1
 0 <= x549 <= 1
 0 <= x550 <= 1
 0 <= x551 <= 1
 0 <= x552 <= 1
 0 <= x553 <= 1
 0 <= x554 <= 1
 0 <= x555 <= 1
 0 <= x556 <= 1
 0 <= x557 <= 1
 0 <= x558 <= 1
 0 <= x559 <= 1
 0 <= x560 <= 1
 0 <= x561 <= 1
 0 <= x562 <= 1
 0 <= x563 <= 1
 0 <= x564 <= 1
 0 <= x565 <= 1
 0 <= x566 <= 1
 0 <= x567 <= 1
 0 <= x568 <= 1
 0 <= x569 <= 1
 0 <= x570 <= 1
 0 <= x571 <= 1
 0 <= x572 <= 1
 0 <= x573 <= 1
 0 <= x574 <= 1
 0 <= x575 <= 1
 0 <= x576 <= 1
 0 <= x577 <= 1
 0 <= x578 <= 1
 0 <= x579 <= 1
 0 <= x580 <= 1
 0 <= x581 <= 1
 0 <= x582 <= 1
 0 <= x583 <= 1
 0 <= x584 <= 1
 0 <= x585 <= 1
 0 <= x586 <= 1
 0 <= x587 <= 1
 0 <= x588 <= 1
 0 <= x589 <= 1
 0 <= x590 <= 1
 0 <= x591 <= 1
 0 <= x592 <= 1
 0 <= x593 <= 1
 0 <= x594 <= 1
 0 <= x595 <= 1
 0 <= x596 <= 1
 0 <= x597 <= 1
 0 <= x598 <= 1
 0 <= x599 <= 1
 0 <= x600 <= 1
 0 <= x601 <= 1
 0 <= x602 <= 1
 0 <= x603 <= 1
 0 <= x604 <= 1
 0 <= x605 <= 1
 0 <= x606 <= 1
 0 <= x607 <= 1
 0 <= x608 <= 1
 0 <= x609 <= 1
 0 <= x610 <= 1
 0 <= x611 <= 1
 0 <= x612 <= 1
 0 <= x613 <= 1
 0 <= x614 <= 1
 0 <= x615 <= 1
 0 <= x616 <= 1
 0 <= x617 <= 1
 0 <= x618 <= 1
 0 <= x619 <= 1
 0 <= x620 <= 1
 0 <= x621 <= 1
 0 <= x622 <= 1
 0 <= x623 <= 1
 0 <= x624 <= 1
 0 <= x625 <= 1
 0 <= x626 <= 1
 0 <= x627 <= 1
 0 <= x628 <= 1
 0 <= x629 <= 1
 0 <= x630 <= 1
 0 <= x631 <= 1
 0 <= x632 <= 1
 0 <= x633 <= 1
 0 <= x634 <= 1
 0 <= x635 <= 1
 0 <= x636 <= 1
 0 <= x637 <= 1
 0 <= x638 <= 1
 0 <= x639 <= 1
 0 <= x640 <= 1
 0 <= x641 <= 1
 0 <= x642 <= 1
 0 <= x643 <= 1
 0 <= x644 <= 1
 0 <= x645 <= 1
 0 <= x646 <= 1
 0 <= x647 <= 1
 0 <= x648 <= 1
 0 <= x649 <= 1
 0 <= x650 <= 1
 0 <= x651 <= 1
 0 <= x652 <= 1
 0 <= x653 <= 1
 0 <= x654 <= 1
 0 <= x655 <= 1
 0 <= x656 <= 1
 0 <= x657 <= 1
 0 <= x658 <= 1
 0 <= x659 <= 1
 0 <= x660 <= 1
Binaries
 x601  x602  x603  x604  x605  x606  x607  x608  x609  x610  x611  x612  x613 
 x614  x615  x616  x617  x618  x619  x620  x621  x622  x623  x624  x625  x626 
 x627  x628  x629  x630  x631  x632  x633  x634  x635  x636  x637  x638  x639 
 x640  x641  x642  x643  x644  x645  x646  x647  x648  x649  x650  x651  x652 
 x653  x654  x655  x656  x657  x658  x659  x660 
End
